decision_x1=[0,7];
decision_x2=[0,7];
decision_x3=[0,7];
decision_x4=[0,7];
decision_x5=[0,7];
decision_x6=[0,7];
decision_x7=[0,7];
decision_x8=[0,7];
decision_x9=[0,7];
decision_x10=[0,7];
decision_x11=[0,7];
decision_x12=[0,7];
decision_x13=[0,7];
decision_x14=[0,7];
decision_x15=[0,7];
decision_x16=[0,7];
decision_x17=[0,7];
decision_x18=[0,7];
random_y1=[0,7];
random_y2=[0,7];
random_y3=[0,7];
random_y4=[0,7];
random_y5=[0,7];
random_y6=[0,7];
random_y7=[0,7];
random_y8=[0,7];
constraint_x2_x1=[
0,0,3.4|
0,1,1.7|
0,2,5.2|
0,3,4.6|
0,4,3.9|
0,5,2|
0,6,6.5|
0,7,2.9|
1,0,0.016|
1,1,0.66|
1,2,8.3|
1,3,0.59|
1,4,8.9|
1,5,7.2|
1,6,2.5|
1,7,8.1|
2,0,0.73|
2,1,6.4|
2,2,9.6|
2,3,5.7|
2,4,1.8|
2,5,9.1|
2,6,8|
2,7,8.8|
3,0,4.1|
3,1,7.1|
3,2,4.2|
3,3,6|
3,4,4.7|
3,5,7.5|
3,6,0.96|
3,7,4.6|
4,0,1.9|
4,1,6.2|
4,2,7.7|
4,3,4.8|
4,4,0.032|
4,5,8.5|
4,6,1.5|
4,7,3.3|
5,0,3.9|
5,1,1.4|
5,2,8.7|
5,3,1.3|
5,4,4.8|
5,5,5.4|
5,6,8.6|
5,7,8.2|
6,0,2.5|
6,1,6.5|
6,2,4.3|
6,3,7.6|
6,4,6.7|
6,5,3.5|
6,6,6.5|
6,7,4|
7,0,1.7|
7,1,7.4|
7,2,2.7|
7,3,9.4|
7,4,5.9|
7,5,6.7|
7,6,3.3|
7,7,8.5|
];
constraint_x3_x2=[
0,0,7.9|
0,1,4.8|
0,2,6.8|
0,3,6|
0,4,1.4|
0,5,8|
0,6,10|
0,7,1.3|
1,0,7.3|
1,1,0.59|
1,2,7.8|
1,3,6.5|
1,4,1.8|
1,5,8.3|
1,6,7.6|
1,7,3.8|
2,0,6.6|
2,1,7.6|
2,2,1.7|
2,3,8.1|
2,4,9.7|
2,5,5.7|
2,6,6.1|
2,7,7.8|
3,0,4.3|
3,1,1.8|
3,2,2.7|
3,3,2.5|
3,4,4.6|
3,5,6.5|
3,6,1.6|
3,7,1.7|
4,0,5.2|
4,1,4.9|
4,2,5.5|
4,3,4.4|
4,4,5.8|
4,5,0.7|
4,6,8.6|
4,7,6.3|
5,0,7.4|
5,1,1.5|
5,2,5.5|
5,3,0.38|
5,4,6.6|
5,5,1.1|
5,6,8.1|
5,7,0.85|
6,0,9.3|
6,1,4.6|
6,2,0.7|
6,3,4.7|
6,4,5|
6,5,6.7|
6,6,7.5|
6,7,9.5|
7,0,5.9|
7,1,8.9|
7,2,6.2|
7,3,4.7|
7,4,1.6|
7,5,3.9|
7,6,7|
7,7,7.6|
];
constraint_x4_x3=[
0,0,7|
0,1,9.6|
0,2,0.16|
0,3,1.5|
0,4,8.9|
0,5,9.6|
0,6,3|
0,7,4.7|
1,0,0.63|
1,1,3.7|
1,2,4|
1,3,4.4|
1,4,6.5|
1,5,1.4|
1,6,8.8|
1,7,6.6|
2,0,5.1|
2,1,6.7|
2,2,3.7|
2,3,8.5|
2,4,2.6|
2,5,7.8|
2,6,8.6|
2,7,4.4|
3,0,6.5|
3,1,4.4|
3,2,6.7|
3,3,0.88|
3,4,5.8|
3,5,3.6|
3,6,6.6|
3,7,5.6|
4,0,5.1|
4,1,7.7|
4,2,1.7|
4,3,8.5|
4,4,7.5|
4,5,9.1|
4,6,9|
4,7,9|
5,0,2.3|
5,1,2.9|
5,2,2.5|
5,3,6.7|
5,4,5.9|
5,5,5.5|
5,6,1.6|
5,7,9|
6,0,3.7|
6,1,7.3|
6,2,6.9|
6,3,6.9|
6,4,6.8|
6,5,9.7|
6,6,5.4|
6,7,6.5|
7,0,7.8|
7,1,7.6|
7,2,5.7|
7,3,8.6|
7,4,4.1|
7,5,1.7|
7,6,3.2|
7,7,8.3|
];
constraint_x5_x1=[
0,0,4.6|
0,1,7.7|
0,2,1.9|
0,3,2.5|
0,4,4.4|
0,5,8.6|
0,6,2.3|
0,7,4.1|
1,0,5.5|
1,1,4.3|
1,2,6.9|
1,3,6.2|
1,4,1.8|
1,5,6.1|
1,6,4.5|
1,7,1.2|
2,0,0.67|
2,1,9.1|
2,2,0.2|
2,3,2|
2,4,5.3|
2,5,3.3|
2,6,5.6|
2,7,0.66|
3,0,6.9|
3,1,0.012|
3,2,4.6|
3,3,6.3|
3,4,2.1|
3,5,8.6|
3,6,2.7|
3,7,3.5|
4,0,5.6|
4,1,7.1|
4,2,3.4|
4,3,4.8|
4,4,9.7|
4,5,1.4|
4,6,7.1|
4,7,0.61|
5,0,5.6|
5,1,5.8|
5,2,0.96|
5,3,4.3|
5,4,2.9|
5,5,3.2|
5,6,5.8|
5,7,2.3|
6,0,3|
6,1,0.76|
6,2,9.4|
6,3,8|
6,4,3.6|
6,5,4.7|
6,6,6.7|
6,7,1.6|
7,0,9|
7,1,2.5|
7,2,4.1|
7,3,2.5|
7,4,9.3|
7,5,5.7|
7,6,4.3|
7,7,0.81|
];
constraint_x6_x2=[
0,0,2.2|
0,1,3.2|
0,2,8.8|
0,3,8.1|
0,4,0.55|
0,5,5.5|
0,6,1.8|
0,7,8.9|
1,0,7|
1,1,6.9|
1,2,5.2|
1,3,7.3|
1,4,2.5|
1,5,6.7|
1,6,1.3|
1,7,2.9|
2,0,0.73|
2,1,9.8|
2,2,9.9|
2,3,0.99|
2,4,4.1|
2,5,9.4|
2,6,4.5|
2,7,6.7|
3,0,5.5|
3,1,8|
3,2,2.8|
3,3,5.3|
3,4,4.3|
3,5,6.9|
3,6,8.7|
3,7,2|
4,0,0.33|
4,1,9.4|
4,2,2.1|
4,3,0.68|
4,4,1.5|
4,5,9.3|
4,6,9.1|
4,7,8.2|
5,0,0.1|
5,1,2.7|
5,2,6.9|
5,3,3.3|
5,4,7.8|
5,5,8.1|
5,6,5.7|
5,7,6.7|
6,0,1.4|
6,1,8.5|
6,2,3|
6,3,8.6|
6,4,7.8|
6,5,3.6|
6,6,8.5|
6,7,4.3|
7,0,6.8|
7,1,1.2|
7,2,8.2|
7,3,9|
7,4,3.7|
7,5,8.6|
7,6,1.9|
7,7,2.2|
];
constraint_x6_x5=[
0,0,3.7|
0,1,5.8|
0,2,6.2|
0,3,5.4|
0,4,0.69|
0,5,6.8|
0,6,5.9|
0,7,8.8|
1,0,2.7|
1,1,4.5|
1,2,0.27|
1,3,6|
1,4,0.12|
1,5,7.4|
1,6,4|
1,7,2.6|
2,0,2.4|
2,1,0.77|
2,2,6.4|
2,3,4.8|
2,4,6.4|
2,5,3.4|
2,6,4.2|
2,7,5.1|
3,0,6.4|
3,1,4.5|
3,2,5.7|
3,3,9.5|
3,4,9|
3,5,6.9|
3,6,1|
3,7,3.8|
4,0,3.1|
4,1,3.9|
4,2,1.3|
4,3,7.2|
4,4,3.4|
4,5,2.1|
4,6,7.8|
4,7,7.6|
5,0,1|
5,1,7.8|
5,2,1.3|
5,3,1.7|
5,4,9.8|
5,5,3.6|
5,6,6.1|
5,7,9.5|
6,0,0.81|
6,1,8.7|
6,2,9.2|
6,3,7.5|
6,4,4.8|
6,5,3.7|
6,6,4.7|
6,7,1.2|
7,0,5.9|
7,1,3.5|
7,2,3.8|
7,3,0.69|
7,4,2.2|
7,5,2.8|
7,6,4|
7,7,0.7|
];
constraint_x7_x3=[
0,0,5.2|
0,1,6.2|
0,2,9.8|
0,3,8.2|
0,4,0.08|
0,5,7.4|
0,6,8.9|
0,7,3.7|
1,0,3.3|
1,1,3.5|
1,2,6.2|
1,3,0.54|
1,4,0.6|
1,5,1.2|
1,6,8.9|
1,7,2.1|
2,0,1.5|
2,1,4.7|
2,2,4|
2,3,4.5|
2,4,6.6|
2,5,5.4|
2,6,5.3|
2,7,0.86|
3,0,0.38|
3,1,9.7|
3,2,7.3|
3,3,5.1|
3,4,7.4|
3,5,6|
3,6,5.4|
3,7,2.6|
4,0,2.1|
4,1,8.4|
4,2,3.1|
4,3,8.8|
4,4,5.7|
4,5,9.4|
4,6,7.2|
4,7,2.5|
5,0,1.5|
5,1,4.5|
5,2,6.3|
5,3,1.1|
5,4,4.5|
5,5,10|
5,6,3.4|
5,7,6.3|
6,0,2.2|
6,1,0.79|
6,2,3.4|
6,3,7.7|
6,4,3.4|
6,5,7|
6,6,0.26|
6,7,1.3|
7,0,7.3|
7,1,0.33|
7,2,2.9|
7,3,9.4|
7,4,1.7|
7,5,0.3|
7,6,5.4|
7,7,3.8|
];
constraint_x7_x6=[
0,0,6.1|
0,1,4.3|
0,2,1.9|
0,3,4.5|
0,4,3.5|
0,5,7.4|
0,6,6.2|
0,7,9.7|
1,0,1.4|
1,1,5.2|
1,2,6.3|
1,3,8.5|
1,4,5|
1,5,2.6|
1,6,6.1|
1,7,1.9|
2,0,7.6|
2,1,2.5|
2,2,6.8|
2,3,9.4|
2,4,4|
2,5,3.1|
2,6,9.2|
2,7,3.4|
3,0,3.8|
3,1,0.67|
3,2,3.6|
3,3,3.9|
3,4,5|
3,5,0.86|
3,6,0.9|
3,7,4.3|
4,0,0.078|
4,1,2.4|
4,2,5.6|
4,3,6.2|
4,4,1.9|
4,5,0.48|
4,6,3.4|
4,7,4.6|
5,0,9.8|
5,1,4.8|
5,2,7.7|
5,3,6.6|
5,4,5.3|
5,5,6.7|
5,6,3.8|
5,7,9.5|
6,0,4.6|
6,1,8.9|
6,2,0.43|
6,3,6.5|
6,4,1.8|
6,5,2.9|
6,6,4.9|
6,7,4.7|
7,0,5.3|
7,1,1.1|
7,2,0.9|
7,3,4.4|
7,4,9.5|
7,5,2|
7,6,5.8|
7,7,4.3|
];
constraint_x8_x4=[
0,0,0.17|
0,1,6.9|
0,2,0.049|
0,3,8.2|
0,4,9.7|
0,5,7.1|
0,6,6.6|
0,7,4.5|
1,0,9.5|
1,1,4.9|
1,2,8.7|
1,3,6.6|
1,4,4.2|
1,5,0.33|
1,6,0.22|
1,7,8.8|
2,0,4.2|
2,1,5.1|
2,2,7.7|
2,3,2.5|
2,4,0.88|
2,5,7.6|
2,6,4.3|
2,7,8.5|
3,0,5.5|
3,1,5.7|
3,2,2.7|
3,3,9.2|
3,4,5.8|
3,5,9.4|
3,6,1.3|
3,7,4.2|
4,0,7|
4,1,2.2|
4,2,5.6|
4,3,9.2|
4,4,8|
4,5,1.8|
4,6,9.3|
4,7,9.2|
5,0,1.9|
5,1,2.7|
5,2,9.7|
5,3,10|
5,4,9.3|
5,5,7.7|
5,6,0.022|
5,7,5.8|
6,0,9|
6,1,9.2|
6,2,4.1|
6,3,9.5|
6,4,0.49|
6,5,5|
6,6,9.7|
6,7,2.8|
7,0,8|
7,1,8.5|
7,2,8.7|
7,3,8.6|
7,4,5.2|
7,5,3|
7,6,8.2|
7,7,1.7|
];
constraint_x8_x7=[
0,0,1.7|
0,1,4.3|
0,2,9.7|
0,3,1.6|
0,4,5.1|
0,5,7.2|
0,6,1.2|
0,7,9.3|
1,0,7.9|
1,1,4.5|
1,2,8|
1,3,4.9|
1,4,7.4|
1,5,8.1|
1,6,3.2|
1,7,3.4|
2,0,7.6|
2,1,8.7|
2,2,1.3|
2,3,0.58|
2,4,5.1|
2,5,8.5|
2,6,3.4|
2,7,7.5|
3,0,7.7|
3,1,3.7|
3,2,0.19|
3,3,10|
3,4,8.9|
3,5,0.83|
3,6,7.9|
3,7,5.8|
4,0,3.3|
4,1,4.7|
4,2,3.9|
4,3,0.78|
4,4,3.4|
4,5,4.8|
4,6,0.64|
4,7,5.4|
5,0,1.1|
5,1,9.8|
5,2,4|
5,3,8.5|
5,4,1.9|
5,5,9|
5,6,1.7|
5,7,4.4|
6,0,1.6|
6,1,1.4|
6,2,0.59|
6,3,4.1|
6,4,3.4|
6,5,1.8|
6,6,7.8|
6,7,0.053|
7,0,3.7|
7,1,2.2|
7,2,1.3|
7,3,8.3|
7,4,1.3|
7,5,1.5|
7,6,6.7|
7,7,5.4|
];
constraint_x9_x5=[
0,0,0.63|
0,1,6.2|
0,2,6.6|
0,3,2.8|
0,4,0.16|
0,5,2.1|
0,6,5.9|
0,7,3.9|
1,0,1.7|
1,1,3.9|
1,2,4.5|
1,3,0.88|
1,4,4.9|
1,5,3|
1,6,2.3|
1,7,4|
2,0,7.5|
2,1,4.2|
2,2,3.1|
2,3,1.6|
2,4,9.3|
2,5,2.8|
2,6,5.9|
2,7,5.5|
3,0,7.7|
3,1,6.1|
3,2,4.1|
3,3,7.6|
3,4,8.6|
3,5,5.2|
3,6,8.6|
3,7,4.4|
4,0,2.3|
4,1,5.5|
4,2,5.8|
4,3,3.7|
4,4,3.6|
4,5,0.22|
4,6,4.9|
4,7,8.4|
5,0,8.5|
5,1,0.11|
5,2,2.2|
5,3,4.6|
5,4,5.3|
5,5,10|
5,6,8.8|
5,7,10|
6,0,8.8|
6,1,6.8|
6,2,2.8|
6,3,0.93|
6,4,5.1|
6,5,6.7|
6,6,1.2|
6,7,2.7|
7,0,5|
7,1,4.7|
7,2,8.6|
7,3,5.4|
7,4,1.7|
7,5,9.7|
7,6,7.7|
7,7,2.8|
];
constraint_x10_x6=[
0,0,1.2|
0,1,3.5|
0,2,1.4|
0,3,9.2|
0,4,8.8|
0,5,7.7|
0,6,8.2|
0,7,1.8|
1,0,4.7|
1,1,8.7|
1,2,5.5|
1,3,0.7|
1,4,7|
1,5,3.6|
1,6,7.2|
1,7,9.9|
2,0,9|
2,1,5.6|
2,2,5.6|
2,3,1.2|
2,4,8.8|
2,5,1.9|
2,6,2.4|
2,7,6.4|
3,0,8.5|
3,1,7.1|
3,2,4|
3,3,0.4|
3,4,5.8|
3,5,7.2|
3,6,10|
3,7,6.3|
4,0,6.5|
4,1,3.4|
4,2,3.4|
4,3,5.3|
4,4,7.5|
4,5,6.1|
4,6,8.2|
4,7,5|
5,0,1.1|
5,1,9.5|
5,2,0.3|
5,3,1.9|
5,4,5.7|
5,5,8.4|
5,6,9.3|
5,7,3.7|
6,0,6.9|
6,1,4.9|
6,2,2.2|
6,3,0.15|
6,4,1.1|
6,5,8.8|
6,6,1.7|
6,7,8.3|
7,0,4.7|
7,1,6.4|
7,2,0.025|
7,3,0.14|
7,4,3.9|
7,5,2.1|
7,6,5.5|
7,7,7.7|
];
constraint_x11_x7=[
0,0,4|
0,1,1.1|
0,2,10|
0,3,0.91|
0,4,4.7|
0,5,1.6|
0,6,5.6|
0,7,7.8|
1,0,6.8|
1,1,0.42|
1,2,8|
1,3,7.4|
1,4,7.7|
1,5,7.6|
1,6,0.097|
1,7,4.2|
2,0,8.3|
2,1,5.8|
2,2,8.3|
2,3,5.6|
2,4,0.44|
2,5,1.6|
2,6,10|
2,7,4.7|
3,0,4.4|
3,1,3.9|
3,2,5.4|
3,3,8.3|
3,4,8.8|
3,5,6.4|
3,6,1.4|
3,7,3.2|
4,0,3.8|
4,1,8.6|
4,2,1.3|
4,3,6.1|
4,4,9.3|
4,5,2.3|
4,6,6.3|
4,7,5.8|
5,0,3.2|
5,1,7.1|
5,2,2.5|
5,3,6.5|
5,4,1.1|
5,5,8|
5,6,9.9|
5,7,6.1|
6,0,5.5|
6,1,6.1|
6,2,4.7|
6,3,7.8|
6,4,4.4|
6,5,3.1|
6,6,9.2|
6,7,10|
7,0,0.34|
7,1,6.4|
7,2,4|
7,3,0.8|
7,4,9.6|
7,5,1.1|
7,6,8.5|
7,7,6.9|
];
constraint_x12_x8=[
0,0,3.1|
0,1,9.1|
0,2,0.81|
0,3,0.023|
0,4,9.7|
0,5,9.6|
0,6,2.8|
0,7,5.3|
1,0,5.1|
1,1,4.6|
1,2,0.033|
1,3,6.9|
1,4,7.9|
1,5,9.3|
1,6,6|
1,7,9.3|
2,0,3.5|
2,1,5|
2,2,9.8|
2,3,3.5|
2,4,2|
2,5,0.3|
2,6,0.77|
2,7,6.5|
3,0,3.7|
3,1,5.4|
3,2,2.9|
3,3,0.59|
3,4,5.4|
3,5,5.3|
3,6,7|
3,7,2.4|
4,0,7.2|
4,1,1.2|
4,2,7.5|
4,3,2.9|
4,4,6.1|
4,5,8.1|
4,6,5.8|
4,7,9.7|
5,0,1.6|
5,1,5.4|
5,2,0.029|
5,3,2.6|
5,4,2.8|
5,5,2.6|
5,6,7.8|
5,7,1.9|
6,0,2.2|
6,1,8.5|
6,2,8.4|
6,3,0.5|
6,4,3.5|
6,5,3.4|
6,6,7.7|
6,7,4.5|
7,0,2|
7,1,5|
7,2,1|
7,3,2.4|
7,4,6.8|
7,5,7|
7,6,5.8|
7,7,7.3|
];
constraint_x13_x9=[
0,0,8.6|
0,1,2|
0,2,9.3|
0,3,1.8|
0,4,0.043|
0,5,8.8|
0,6,8.2|
0,7,6|
1,0,3.8|
1,1,6|
1,2,2.8|
1,3,4.2|
1,4,0.57|
1,5,6.8|
1,6,0.64|
1,7,8.8|
2,0,5|
2,1,0.96|
2,2,8.7|
2,3,6.8|
2,4,6.2|
2,5,0.4|
2,6,7.2|
2,7,1.5|
3,0,8.1|
3,1,1.5|
3,2,1.5|
3,3,3.8|
3,4,3.1|
3,5,0.78|
3,6,1.1|
3,7,0.075|
4,0,5.8|
4,1,5.1|
4,2,3.3|
4,3,2.5|
4,4,9|
4,5,6.4|
4,6,3.8|
4,7,7.3|
5,0,7.6|
5,1,4.2|
5,2,0.28|
5,3,1.8|
5,4,4|
5,5,4.2|
5,6,8.9|
5,7,8.6|
6,0,9.5|
6,1,5.9|
6,2,9|
6,3,7.1|
6,4,8|
6,5,3|
6,6,4.3|
6,7,6.6|
7,0,2.8|
7,1,1.5|
7,2,1.9|
7,3,3.8|
7,4,6.9|
7,5,2.9|
7,6,8.2|
7,7,8.8|
];
constraint_x14_x10=[
0,0,9|
0,1,4.9|
0,2,4.3|
0,3,5.5|
0,4,0.79|
0,5,9.5|
0,6,7.3|
0,7,4.9|
1,0,3|
1,1,6.6|
1,2,7|
1,3,0.97|
1,4,5.5|
1,5,0.15|
1,6,8|
1,7,10|
2,0,8.7|
2,1,0.34|
2,2,9.3|
2,3,2.1|
2,4,10|
2,5,9.2|
2,6,5.9|
2,7,7.9|
3,0,7.9|
3,1,9.4|
3,2,10|
3,3,0.35|
3,4,5.2|
3,5,3.7|
3,6,8.9|
3,7,5.2|
4,0,7.9|
4,1,6.6|
4,2,7.1|
4,3,3|
4,4,6.3|
4,5,4.7|
4,6,6.1|
4,7,6.3|
5,0,1.6|
5,1,9.9|
5,2,8.4|
5,3,2.9|
5,4,7.5|
5,5,8.3|
5,6,2.4|
5,7,3.5|
6,0,0.31|
6,1,2.6|
6,2,2.6|
6,3,4.4|
6,4,6|
6,5,3.3|
6,6,0.66|
6,7,2.6|
7,0,8.3|
7,1,4.6|
7,2,4.6|
7,3,6.9|
7,4,9.1|
7,5,4.9|
7,6,5.4|
7,7,9.9|
];
constraint_x15_x11=[
0,0,0.92|
0,1,6.7|
0,2,2.3|
0,3,0.35|
0,4,7.5|
0,5,0.87|
0,6,9.2|
0,7,0.47|
1,0,2.1|
1,1,4.3|
1,2,4.5|
1,3,5.5|
1,4,5|
1,5,4|
1,6,3.2|
1,7,8.3|
2,0,2.8|
2,1,5|
2,2,1.9|
2,3,5.5|
2,4,7.6|
2,5,8|
2,6,8|
2,7,5.4|
3,0,5.9|
3,1,0.43|
3,2,4.3|
3,3,9.6|
3,4,5.7|
3,5,2.8|
3,6,9.1|
3,7,3.7|
4,0,8.5|
4,1,7.5|
4,2,2.9|
4,3,3.3|
4,4,9.5|
4,5,2.4|
4,6,2.5|
4,7,7.2|
5,0,8.4|
5,1,9.9|
5,2,4.1|
5,3,7.5|
5,4,8.1|
5,5,1.5|
5,6,7|
5,7,1.5|
6,0,7|
6,1,3.1|
6,2,1.8|
6,3,7.4|
6,4,6.7|
6,5,7.8|
6,6,0.56|
6,7,0.86|
7,0,1.3|
7,1,1.5|
7,2,2.7|
7,3,7.6|
7,4,9.1|
7,5,7.4|
7,6,0.68|
7,7,7.9|
];
constraint_x16_x12=[
0,0,1.2|
0,1,3.2|
0,2,8.4|
0,3,9.4|
0,4,3.5|
0,5,7.3|
0,6,2|
0,7,7.3|
1,0,5.5|
1,1,6.8|
1,2,5.8|
1,3,6.2|
1,4,9.2|
1,5,4.1|
1,6,6.4|
1,7,3.2|
2,0,1.7|
2,1,4.9|
2,2,7.7|
2,3,4.7|
2,4,5.5|
2,5,8.4|
2,6,1.8|
2,7,3.8|
3,0,6|
3,1,2.1|
3,2,4.3|
3,3,1.6|
3,4,7.9|
3,5,1.9|
3,6,7.5|
3,7,10|
4,0,4.7|
4,1,2.2|
4,2,8.5|
4,3,3.8|
4,4,7.4|
4,5,0.58|
4,6,9|
4,7,2.8|
5,0,9.9|
5,1,2.1|
5,2,4.4|
5,3,1.8|
5,4,3.6|
5,5,2.2|
5,6,7.5|
5,7,1.2|
6,0,8.7|
6,1,6.3|
6,2,0.69|
6,3,2.5|
6,4,9.5|
6,5,9.5|
6,6,5.9|
6,7,4.1|
7,0,6|
7,1,5.9|
7,2,4.5|
7,3,1.5|
7,4,8.1|
7,5,0.83|
7,6,3.3|
7,7,5.4|
];
constraint_x17_x13=[
0,0,7|
0,1,9.5|
0,2,8.1|
0,3,9.3|
0,4,2.5|
0,5,7|
0,6,7.9|
0,7,8.5|
1,0,0.21|
1,1,7.9|
1,2,6.8|
1,3,0.31|
1,4,4|
1,5,5.5|
1,6,7.8|
1,7,7.8|
2,0,1.3|
2,1,6.4|
2,2,5.6|
2,3,7.4|
2,4,9|
2,5,7.4|
2,6,4.6|
2,7,6.6|
3,0,1.8|
3,1,8|
3,2,8.9|
3,3,7.3|
3,4,7.1|
3,5,9.8|
3,6,6.9|
3,7,7.6|
4,0,1|
4,1,2.7|
4,2,7|
4,3,0.64|
4,4,3.6|
4,5,8.1|
4,6,0.85|
4,7,0.22|
5,0,1.2|
5,1,0.015|
5,2,2.6|
5,3,5.5|
5,4,9.3|
5,5,4.8|
5,6,2.3|
5,7,4.9|
6,0,1|
6,1,6|
6,2,1.3|
6,3,0.27|
6,4,8.7|
6,5,8.8|
6,6,5.9|
6,7,2.5|
7,0,0.95|
7,1,8.9|
7,2,0.27|
7,3,7|
7,4,1.2|
7,5,9.3|
7,6,6.4|
7,7,0.63|
];
constraint_x18_x14=[
0,0,3.2|
0,1,4.4|
0,2,0.65|
0,3,8.3|
0,4,4.5|
0,5,9.7|
0,6,10|
0,7,9.6|
1,0,2.8|
1,1,5.8|
1,2,7.6|
1,3,7.8|
1,4,9.8|
1,5,7.4|
1,6,7.4|
1,7,9.7|
2,0,1.4|
2,1,8.8|
2,2,4.3|
2,3,8.7|
2,4,2.4|
2,5,8.8|
2,6,2|
2,7,3.8|
3,0,4.8|
3,1,2.9|
3,2,4|
3,3,2.9|
3,4,1.9|
3,5,6.5|
3,6,8.3|
3,7,7.1|
4,0,0.91|
4,1,9.1|
4,2,0.66|
4,3,8.3|
4,4,9.7|
4,5,4.9|
4,6,1.9|
4,7,2.9|
5,0,2.5|
5,1,1.1|
5,2,9.7|
5,3,7.5|
5,4,4.8|
5,5,5.7|
5,6,8.5|
5,7,4.4|
6,0,2.6|
6,1,0.99|
6,2,8.5|
6,3,1.8|
6,4,4.7|
6,5,3.8|
6,6,1.9|
6,7,5.2|
7,0,0.34|
7,1,5.9|
7,2,5|
7,3,1.9|
7,4,2.7|
7,5,0.45|
7,6,8.5|
7,7,5.6|
];
constraint_x1_y1=[
0,0,1.3|
0,1,7.6|
0,2,3.7|
0,3,9.5|
0,4,1.5|
0,5,3.2|
0,6,4.3|
0,7,0.26|
1,0,3.5|
1,1,0.55|
1,2,6.2|
1,3,2.6|
1,4,0.19|
1,5,8|
1,6,5.4|
1,7,0.079|
2,0,6.3|
2,1,0.96|
2,2,6|
2,3,0.31|
2,4,1.1|
2,5,3.4|
2,6,2.8|
2,7,5.4|
3,0,0.57|
3,1,8.3|
3,2,0.49|
3,3,4.6|
3,4,8.1|
3,5,2.1|
3,6,9.9|
3,7,1.7|
4,0,4|
4,1,6.6|
4,2,5.8|
4,3,1.3|
4,4,3.2|
4,5,0.18|
4,6,8|
4,7,8.9|
5,0,9.4|
5,1,7.9|
5,2,1.2|
5,3,7.5|
5,4,6.7|
5,5,8.4|
5,6,10|
5,7,4.8|
6,0,3|
6,1,8.7|
6,2,3|
6,3,8.2|
6,4,7.6|
6,5,4|
6,6,3.1|
6,7,7.4|
7,0,1.2|
7,1,8.4|
7,2,9.8|
7,3,5.3|
7,4,4.8|
7,5,7|
7,6,2.7|
7,7,4.1|
];
constraint_x2_y2=[
0,0,2.1|
0,1,7.4|
0,2,5.8|
0,3,5.6|
0,4,5.8|
0,5,2.1|
0,6,8.6|
0,7,0.49|
1,0,2.8|
1,1,3.2|
1,2,0.71|
1,3,7.2|
1,4,9.9|
1,5,2.3|
1,6,9.4|
1,7,5.3|
2,0,2|
2,1,5.2|
2,2,0.78|
2,3,2.9|
2,4,4.5|
2,5,3.2|
2,6,4.3|
2,7,9.7|
3,0,3.5|
3,1,1.8|
3,2,7|
3,3,6.4|
3,4,6.4|
3,5,2.8|
3,6,8|
3,7,3.3|
4,0,0.99|
4,1,5.1|
4,2,9.2|
4,3,8.5|
4,4,2.5|
4,5,5.1|
4,6,7.9|
4,7,6.4|
5,0,4.7|
5,1,5.7|
5,2,4.1|
5,3,3.6|
5,4,7.1|
5,5,2.6|
5,6,6.5|
5,7,9.7|
6,0,7.2|
6,1,6|
6,2,8.8|
6,3,1.9|
6,4,3.3|
6,5,0.82|
6,6,8.6|
6,7,0.87|
7,0,4.3|
7,1,8.8|
7,2,2.9|
7,3,7.9|
7,4,1.1|
7,5,2.8|
7,6,2.1|
7,7,5.8|
];
constraint_x3_y3=[
0,0,0.84|
0,1,8.2|
0,2,8.5|
0,3,7.3|
0,4,5.3|
0,5,8.5|
0,6,8.7|
0,7,7|
1,0,0.32|
1,1,2.1|
1,2,8.2|
1,3,4.6|
1,4,7.4|
1,5,3.9|
1,6,8.7|
1,7,0.7|
2,0,9.7|
2,1,0.45|
2,2,2.3|
2,3,9.7|
2,4,8.3|
2,5,5|
2,6,4.5|
2,7,6.6|
3,0,1.2|
3,1,1.7|
3,2,4.5|
3,3,9.2|
3,4,8.1|
3,5,0.44|
3,6,4.6|
3,7,1.9|
4,0,8.2|
4,1,4|
4,2,9.2|
4,3,1.2|
4,4,6.8|
4,5,9.6|
4,6,1.4|
4,7,7.5|
5,0,5.7|
5,1,5.8|
5,2,4.4|
5,3,8.4|
5,4,2.3|
5,5,7.8|
5,6,0.7|
5,7,8|
6,0,4.6|
6,1,1.9|
6,2,1.7|
6,3,2.6|
6,4,2.8|
6,5,2.8|
6,6,6.8|
6,7,5.9|
7,0,9.8|
7,1,8.7|
7,2,5.6|
7,3,2.2|
7,4,8.1|
7,5,9.5|
7,6,6.7|
7,7,4.4|
];
constraint_x4_y4=[
0,0,3.8|
0,1,6.9|
0,2,2.3|
0,3,3.1|
0,4,3.2|
0,5,4.5|
0,6,2.9|
0,7,2.7|
1,0,7.5|
1,1,5.3|
1,2,2.9|
1,3,1.7|
1,4,9.9|
1,5,5.6|
1,6,4.2|
1,7,3.7|
2,0,9|
2,1,0.3|
2,2,1.2|
2,3,3.8|
2,4,0.3|
2,5,3.1|
2,6,1.1|
2,7,6.9|
3,0,3.5|
3,1,0.85|
3,2,1.4|
3,3,4|
3,4,0.21|
3,5,4.6|
3,6,5|
3,7,3.7|
4,0,6.9|
4,1,8.7|
4,2,0.63|
4,3,0.18|
4,4,2|
4,5,2.6|
4,6,0.91|
4,7,5|
5,0,1.3|
5,1,5.6|
5,2,7.9|
5,3,0.021|
5,4,4.4|
5,5,6.9|
5,6,9.2|
5,7,10|
6,0,1.2|
6,1,8.1|
6,2,9.8|
6,3,1.8|
6,4,3.5|
6,5,8.4|
6,6,5.9|
6,7,0.34|
7,0,1.4|
7,1,6.6|
7,2,1.7|
7,3,2|
7,4,5.7|
7,5,0.98|
7,6,9|
7,7,9.6|
];
constraint_x5_y5=[
0,0,3|
0,1,2.4|
0,2,9.5|
0,3,6.5|
0,4,5|
0,5,1.3|
0,6,1.9|
0,7,6.4|
1,0,5.9|
1,1,2.4|
1,2,9.5|
1,3,4.2|
1,4,3.6|
1,5,9.3|
1,6,9.4|
1,7,8.3|
2,0,5.5|
2,1,7.1|
2,2,1.7|
2,3,8.5|
2,4,8.4|
2,5,3.9|
2,6,0.54|
2,7,6.7|
3,0,7.5|
3,1,4.3|
3,2,8.4|
3,3,8.1|
3,4,0.67|
3,5,4|
3,6,3.4|
3,7,9|
4,0,1.5|
4,1,6.7|
4,2,1.1|
4,3,8.1|
4,4,0.35|
4,5,0.028|
4,6,7.4|
4,7,6.6|
5,0,8.9|
5,1,3.8|
5,2,3.5|
5,3,3.8|
5,4,8.3|
5,5,5.7|
5,6,8.6|
5,7,3.6|
6,0,2.4|
6,1,5.3|
6,2,3.1|
6,3,2.8|
6,4,6.2|
6,5,3.6|
6,6,2.2|
6,7,1.1|
7,0,0.87|
7,1,1.2|
7,2,8.4|
7,3,5.1|
7,4,1.1|
7,5,0.53|
7,6,3.4|
7,7,2.8|
];
constraint_x6_y6=[
0,0,7.1|
0,1,2.4|
0,2,8.1|
0,3,3.7|
0,4,2.1|
0,5,7.8|
0,6,0.65|
0,7,8.6|
1,0,9.1|
1,1,1.9|
1,2,4.6|
1,3,0.057|
1,4,5.7|
1,5,7|
1,6,1.1|
1,7,1.8|
2,0,8.5|
2,1,6.9|
2,2,7.4|
2,3,4.7|
2,4,9.3|
2,5,2|
2,6,8.2|
2,7,3.6|
3,0,9.3|
3,1,7.4|
3,2,7.1|
3,3,2.2|
3,4,9.9|
3,5,3.1|
3,6,1.1|
3,7,6.6|
4,0,0.69|
4,1,9.6|
4,2,6.9|
4,3,3.2|
4,4,7.8|
4,5,3.2|
4,6,5.7|
4,7,1.9|
5,0,7.4|
5,1,7.5|
5,2,0.25|
5,3,0.57|
5,4,4.3|
5,5,4.8|
5,6,0.06|
5,7,1.1|
6,0,8.9|
6,1,4|
6,2,5.6|
6,3,8.2|
6,4,7.3|
6,5,2.5|
6,6,9.3|
6,7,3|
7,0,6.9|
7,1,8.5|
7,2,8|
7,3,0.75|
7,4,2.6|
7,5,0.66|
7,6,1.3|
7,7,3.9|
];
constraint_x7_y7=[
0,0,6.8|
0,1,3.1|
0,2,3.2|
0,3,8.1|
0,4,5.2|
0,5,5|
0,6,3.4|
0,7,8.3|
1,0,9.9|
1,1,6|
1,2,7.1|
1,3,8.7|
1,4,5.1|
1,5,5|
1,6,5.8|
1,7,2|
2,0,7.7|
2,1,8.3|
2,2,1.9|
2,3,9.2|
2,4,5.7|
2,5,5.2|
2,6,1.9|
2,7,4.5|
3,0,0.59|
3,1,8.7|
3,2,4|
3,3,5.2|
3,4,2.8|
3,5,9.5|
3,6,5.9|
3,7,5.1|
4,0,3.7|
4,1,7.7|
4,2,8.5|
4,3,3.6|
4,4,8.8|
4,5,2.8|
4,6,6.8|
4,7,0.34|
5,0,2.3|
5,1,8.6|
5,2,0.6|
5,3,9.2|
5,4,4.7|
5,5,1.1|
5,6,5.5|
5,7,1.4|
6,0,5.3|
6,1,0.18|
6,2,8|
6,3,1.5|
6,4,7.5|
6,5,3.9|
6,6,5.8|
6,7,4.4|
7,0,2.3|
7,1,9|
7,2,7|
7,3,7.2|
7,4,4.4|
7,5,4.5|
7,6,7.3|
7,7,9.6|
];
constraint_x8_y8=[
0,0,9.1|
0,1,1.3|
0,2,4.4|
0,3,2.4|
0,4,7.8|
0,5,2.5|
0,6,2.5|
0,7,2.3|
1,0,6.5|
1,1,4|
1,2,1.8|
1,3,3.7|
1,4,7.3|
1,5,9.8|
1,6,4.1|
1,7,6.6|
2,0,7.5|
2,1,1.7|
2,2,5|
2,3,1.3|
2,4,4.5|
2,5,7.3|
2,6,2.8|
2,7,5.9|
3,0,7.4|
3,1,10|
3,2,6.5|
3,3,8.8|
3,4,2.4|
3,5,9.7|
3,6,5.8|
3,7,6.9|
4,0,5.8|
4,1,4.8|
4,2,5.6|
4,3,6.9|
4,4,3.2|
4,5,8.3|
4,6,4.6|
4,7,7|
5,0,6.5|
5,1,6.6|
5,2,6.1|
5,3,5.7|
5,4,8.8|
5,5,0.36|
5,6,4.5|
5,7,3.5|
6,0,1.6|
6,1,7.4|
6,2,4.6|
6,3,5.6|
6,4,4.5|
6,5,6.5|
6,6,7.8|
6,7,1.1|
7,0,7.2|
7,1,7.1|
7,2,6.7|
7,3,3.6|
7,4,3.5|
7,5,0.099|
7,6,4.7|
7,7,0.95|
];
initial_distribution_y1=[0.073,0.18,0.022,0.22,0.14,0.17,0.11,0.087];
initial_distribution_y2=[0.15,0.11,0.11,0.092,0.19,0.18,0.11,0.059];
initial_distribution_y3=[0.18,0.11,0.22,0.13,0.095,0.19,0.058,0.02];
initial_distribution_y4=[0.12,0.011,0.19,0.13,0.23,0.12,0.047,0.15];
initial_distribution_y5=[0.095,0.031,0.036,0.1,0.26,0.26,0.1,0.11];
initial_distribution_y6=[0.17,0.038,0.3,0.024,0.16,0.042,0.17,0.098];
initial_distribution_y7=[0.052,0.0062,0.18,0.12,0.23,0.14,0.087,0.17];
initial_distribution_y8=[0.07,0.16,0.17,0.16,0.15,0.11,0.11,0.059];
transition_y1=[
0.2,0.064,0.097,0.17,0.11,0.12,0.18,0.057|
0.021,0.081,0.17,0.23,0.048,0.23,0.07,0.15|
0.041,0.16,0.19,0.15,0.24,0.1,0.062,0.06|
0.067,0.22,0.24,0.12,0.13,0.069,0.018,0.15|
0.11,0.16,0.037,0.099,0.19,0.005,0.19,0.21|
0.05,0.14,0.011,0.34,0.27,0.069,0.088,0.028|
0.22,0.045,0.13,0.046,0.16,0.2,0.02,0.18|
0.18,0.029,0.055,0.14,0.2,0.057,0.099,0.24|
];
transition_y2=[
0.025,0.056,0.15,0.025,0.25,0.14,0.12,0.24|
0.15,0.15,0.17,0.02,0.19,0.037,0.15,0.14|
0.21,0.22,0.038,0.23,0.033,0.077,0.15,0.053|
0.18,0.19,0.24,0.047,0.078,0.13,0.023,0.11|
0.16,0.0074,0.093,0.19,0.14,0.12,0.21,0.07|
0.049,0.19,0.12,0.18,0.14,0.22,0.019,0.084|
0.03,0.058,0.16,0.043,0.22,0.16,0.2,0.14|
0.13,0.049,0.13,0.24,0.21,0.17,0.033,0.034|
];
transition_y3=[
0.17,0.15,0.039,0.031,0.29,0.03,0.2,0.084|
0.12,0.19,0.12,0.017,0.0054,0.16,0.19,0.19|
0.077,0.11,0.25,0.12,0.066,0.12,0.2,0.065|
0.0069,0.18,0.02,0.18,0.23,0.11,0.014,0.27|
0.0069,0.086,0.039,0.28,0.31,0.17,0.087,0.01|
0.021,0.046,0.049,0.22,0.2,0.12,0.11,0.22|
0.16,0.12,0.14,0.0093,0.087,0.17,0.15,0.17|
0.11,0.15,0.17,0.059,0.19,0.053,0.24,0.035|
];
transition_y4=[
0.22,0.074,0.19,0.066,0.13,0.053,0.061,0.21|
0.13,0.15,0.17,0.032,0.12,0.11,0.1,0.18|
0.078,0.18,0.14,0.18,0.053,0.098,0.21,0.065|
0.25,0.15,0.04,0.032,0.12,0.015,0.22,0.16|
0.22,0.096,0.11,0.23,0.21,0.045,0.027,0.063|
0.069,0.026,0.23,0.14,0.039,0.24,0.058,0.2|
0.14,0.085,0.14,0.09,0.18,0.17,0.088,0.11|
0.22,0.046,0.21,0.015,0.11,0.19,0.073,0.14|
];
transition_y5=[
0.014,0.19,0.15,0.23,0.045,0.14,0.06,0.17|
0.15,0.11,0.099,0.2,0.097,0.15,0.11,0.088|
0.02,0.26,0.29,0.12,0.13,0.045,0.041,0.085|
0.24,0.27,0.044,0.14,0.031,0.13,0.12,0.037|
0.067,0.041,0.13,0.17,0.19,0.19,0.17,0.04|
0.042,0.29,0.21,0.072,0.033,0.11,0.044,0.2|
0.071,0.18,0.13,0.11,0.15,0.18,0.042,0.15|
0.047,0.039,0.22,0.061,0.13,0.18,0.12,0.2|
];
transition_y6=[
0.054,0.17,0.077,0.24,0.0052,0.034,0.22,0.19|
0.0054,0.014,0.18,0.19,0.2,0.22,0.16,0.034|
0.15,0.16,0.16,0.091,0.13,0.062,0.089,0.16|
0.082,0.012,0.084,0.022,0.1,0.25,0.2,0.24|
0.11,0.051,0.045,0.26,0.16,0.27,0.041,0.054|
0.23,0.057,0.18,0.034,0.013,0.054,0.27,0.17|
0.17,0.18,0.098,0.17,0.034,0.095,0.074,0.18|
0.031,0.07,0.29,0.29,0.16,0.048,0.084,0.026|
];
transition_y7=[
0.027,0.059,0.17,0.06,0.2,0.18,0.16,0.14|
0.091,0.18,0.13,0.16,0.1,0.048,0.12,0.17|
0.084,0.055,0.13,0.21,0.16,0.16,0.19,0.017|
0.023,0.27,0.023,0.085,0.25,0.14,0.21,0.0048|
0.017,0.2,0.027,0.21,0.19,0.23,0.058,0.068|
0.14,0.15,0.16,0.15,0.06,0.069,0.088,0.18|
0.08,0.1,0.1,0.073,0.064,0.064,0.16,0.35|
0.17,0.18,0.1,0.16,0.067,0.11,0.074,0.14|
];
transition_y8=[
0.18,0.078,0.11,0.026,0.17,0.0071,0.23,0.19|
0.17,0.23,0.11,0.051,0.036,0.14,0.19,0.071|
0.027,0.15,0.36,0.085,0.19,0.049,0.0091,0.13|
0.042,0.1,0.081,0.2,0.07,0.21,0.14,0.15|
0.26,0.27,0.12,0.12,0.043,0.031,0.057,0.098|
0.019,0.17,0.1,0.2,0.073,0.19,0.079,0.17|
0.062,0.19,0.12,0.19,0.16,0.07,0.074,0.13|
0.23,0.17,0.14,0.16,0.025,0.043,0.22,0.011|
];
